
Gurobi 9.0.2 (mac64, Python) logging started Sun Dec 11 16:06:27 2022

Using license file /Users/muratilter/gurobi.lic
Set parameter LogFile to value best-lin-new-future-2.log
Academic license - for non-commercial use only
Read LP format model from file new_best_lin_future_2.lp
Reading time = 0.01 seconds
: 929 rows, 616 columns, 6108 nonzeros
Gurobi Optimizer version 9.0.2 build v9.0.2rc0 (mac64)
Optimize a model with 929 rows, 616 columns and 6108 nonzeros
Model fingerprint: 0x9b3fbdb4
Variable types: 0 continuous, 616 integer (616 binary)
Coefficient statistics:
  Matrix range     [1e+00, 2e+01]
  Objective range  [2e+00, 4e+00]
  Bounds range     [1e+00, 1e+00]
  RHS range        [1e+00, 1e+00]
Presolve removed 64 rows and 200 columns
Presolve time: 0.03s
Presolved: 865 rows, 416 columns, 5844 nonzeros
Variable types: 0 continuous, 416 integer (352 binary)
Found heuristic solution: objective 128.0000000
Found heuristic solution: objective 64.0000000

Root relaxation: objective 3.951929e-01, 407 iterations, 0.01 seconds

    Nodes    |    Current Node    |     Objective Bounds      |     Work
 Expl Unexpl |  Obj  Depth IntInf | Incumbent    BestBd   Gap | It/Node Time

     0     0    0.39519    0   25   64.00000    0.39519  99.4%     -    0s
H    0     0                      18.0000000    0.39519  97.8%     -    0s
     0     0    0.51640    0   55   18.00000    0.51640  97.1%     -    0s
H    0     0                      14.0000000    0.51640  96.3%     -    0s
H    0     0                      10.0000000    0.51640  94.8%     -    0s
     0     0    0.80623    0   20   10.00000    0.80623  91.9%     -    0s
     0     0    0.80623    0   22   10.00000    0.80623  91.9%     -    0s
     0     0    0.80623    0   21   10.00000    0.80623  91.9%     -    0s
     0     0    1.37860    0   20   10.00000    1.37860  86.2%     -    0s
     0     0    2.00000    0   20   10.00000    2.00000  80.0%     -    0s
     0     0    2.00000    0   20   10.00000    2.00000  80.0%     -    0s
     0     2    2.00000    0   20   10.00000    2.00000  80.0%     -    0s

Cutting planes:
  Cover: 7
  Implied bound: 19
  MIR: 17
  StrongCG: 1
  Inf proof: 1
  Zero half: 2

Explored 7844 nodes (97525 simplex iterations) in 2.03 seconds
Thread count was 8 (of 8 available processors)

Solution count 5: 10 14 18 ... 128

Optimal solution found (tolerance 1.00e-04)
Best objective 1.000000000000e+01, best bound 1.000000000000e+01, gap 0.0000%
